c Formule 3-SAT générée par réduction
c Variables originales: 18446744073709551431
c Variables totales (avec auxiliaires): 475
p cnf 475 660
1 21 126 0
1 21 -126 0
5 25 127 0
5 25 -127 0
9 29 128 0
9 29 -128 0
13 33 129 0
13 33 -129 0
17 37 130 0
17 37 -130 0
2 22 131 0
2 22 -131 0
6 26 132 0
6 26 -132 0
10 30 133 0
10 30 -133 0
14 34 134 0
14 34 -134 0
18 38 135 0
18 38 -135 0
3 23 136 0
3 23 -136 0
7 27 137 0
7 27 -137 0
11 31 138 0
11 31 -138 0
15 35 139 0
15 35 -139 0
19 39 140 0
19 39 -140 0
4 24 141 0
4 24 -141 0
8 28 142 0
8 28 -142 0
12 32 143 0
12 32 -143 0
16 36 144 0
16 36 -144 0
20 40 145 0
20 40 -145 0
-41 -1 146 0
-146 -22 147 0
-147 -3 -4 0
-42 -5 148 0
-148 -26 149 0
-149 -7 -8 0
-43 -9 150 0
-150 -30 151 0
-151 -11 -12 0
-44 -13 152 0
-152 -34 153 0
-153 -15 -16 0
-45 -17 154 0
-154 -38 155 0
-155 -19 -20 0
-41 -21 156 0
-156 -2 157 0
-157 -3 -4 0
-42 -25 158 0
-158 -6 159 0
-159 -7 -8 0
-43 -29 160 0
-160 -10 161 0
-161 -11 -12 0
-44 -33 162 0
-162 -14 163 0
-163 -15 -16 0
-45 -37 164 0
-164 -18 165 0
-165 -19 -20 0
-41 -21 166 0
-166 -2 167 0
-167 -3 -24 0
-42 -25 168 0
-168 -6 169 0
-169 -7 -28 0
-43 -29 170 0
-170 -10 171 0
-171 -11 -32 0
-44 -33 172 0
-172 -14 173 0
-173 -15 -36 0
-45 -37 174 0
-174 -18 175 0
-175 -19 -40 0
-41 -21 176 0
-176 -22 177 0
-177 -3 -4 0
-42 -25 178 0
-178 -26 179 0
-179 -7 -8 0
-43 -29 180 0
-180 -30 181 0
-181 -11 -12 0
-44 -33 182 0
-182 -34 183 0
-183 -15 -16 0
-45 -37 184 0
-184 -38 185 0
-185 -19 -20 0
-41 -21 186 0
-186 -22 187 0
-187 -3 -24 0
-42 -25 188 0
-188 -26 189 0
-189 -7 -28 0
-43 -29 190 0
-190 -30 191 0
-191 -11 -32 0
-44 -33 192 0
-192 -34 193 0
-193 -15 -36 0
-45 -37 194 0
-194 -38 195 0
-195 -19 -40 0
-41 -21 196 0
-196 -22 197 0
-197 -23 -4 0
-42 -25 198 0
-198 -26 199 0
-199 -27 -8 0
-43 -29 200 0
-200 -30 201 0
-201 -31 -12 0
-44 -33 202 0
-202 -34 203 0
-203 -35 -16 0
-45 -37 204 0
-204 -38 205 0
-205 -39 -20 0
46 47 206 0
-206 48 207 0
-207 49 50 0
51 52 208 0
-208 53 209 0
-209 54 55 0
56 57 210 0
-210 58 211 0
-211 59 60 0
61 62 212 0
-212 63 213 0
-213 64 65 0
71 72 214 0
-214 73 215 0
-215 74 75 0
76 77 216 0
-216 78 217 0
-217 79 80 0
81 82 218 0
-218 83 219 0
-219 84 85 0
96 97 220 0
-220 98 221 0
-221 99 100 0
101 102 222 0
-222 103 223 0
-223 104 105 0
121 122 224 0
-224 123 225 0
-225 124 125 0
-46 41 226 0
-46 41 -226 0
-47 42 227 0
-47 42 -227 0
-48 43 228 0
-48 43 -228 0
-49 44 229 0
-49 44 -229 0
-50 45 230 0
-50 45 -230 0
-51 41 231 0
-51 41 -231 0
-52 42 232 0
-52 42 -232 0
-53 43 233 0
-53 43 -233 0
-54 44 234 0
-54 44 -234 0
-55 45 235 0
-55 45 -235 0
-56 41 236 0
-56 41 -236 0
-57 42 237 0
-57 42 -237 0
-58 43 238 0
-58 43 -238 0
-59 44 239 0
-59 44 -239 0
-60 45 240 0
-60 45 -240 0
-61 41 241 0
-61 41 -241 0
-62 42 242 0
-62 42 -242 0
-63 43 243 0
-63 43 -243 0
-64 44 244 0
-64 44 -244 0
-65 45 245 0
-65 45 -245 0
-71 41 246 0
-71 41 -246 0
-72 42 247 0
-72 42 -247 0
-73 43 248 0
-73 43 -248 0
-74 44 249 0
-74 44 -249 0
-75 45 250 0
-75 45 -250 0
-76 41 251 0
-76 41 -251 0
-77 42 252 0
-77 42 -252 0
-78 43 253 0
-78 43 -253 0
-79 44 254 0
-79 44 -254 0
-80 45 255 0
-80 45 -255 0
-81 41 256 0
-81 41 -256 0
-82 42 257 0
-82 42 -257 0
-83 43 258 0
-83 43 -258 0
-84 44 259 0
-84 44 -259 0
-85 45 260 0
-85 45 -260 0
-96 41 261 0
-96 41 -261 0
-97 42 262 0
-97 42 -262 0
-98 43 263 0
-98 43 -263 0
-99 44 264 0
-99 44 -264 0
-100 45 265 0
-100 45 -265 0
-101 41 266 0
-101 41 -266 0
-102 42 267 0
-102 42 -267 0
-103 43 268 0
-103 43 -268 0
-104 44 269 0
-104 44 -269 0
-105 45 270 0
-105 45 -270 0
-121 41 271 0
-121 41 -271 0
-122 42 272 0
-122 42 -272 0
-123 43 273 0
-123 43 -273 0
-124 44 274 0
-124 44 -274 0
-125 45 275 0
-125 45 -275 0
-46 1 276 0
-46 1 -276 0
-47 5 277 0
-47 5 -277 0
-48 9 278 0
-48 9 -278 0
-49 13 279 0
-49 13 -279 0
-50 17 280 0
-50 17 -280 0
-46 2 281 0
-46 2 -281 0
-47 6 282 0
-47 6 -282 0
-48 10 283 0
-48 10 -283 0
-49 14 284 0
-49 14 -284 0
-50 18 285 0
-50 18 -285 0
-46 3 286 0
-46 3 -286 0
-47 7 287 0
-47 7 -287 0
-48 11 288 0
-48 11 -288 0
-49 15 289 0
-49 15 -289 0
-50 19 290 0
-50 19 -290 0
-46 4 291 0
-46 4 -291 0
-47 8 292 0
-47 8 -292 0
-48 12 293 0
-48 12 -293 0
-49 16 294 0
-49 16 -294 0
-50 20 295 0
-50 20 -295 0
-51 1 296 0
-51 1 -296 0
-52 5 297 0
-52 5 -297 0
-53 9 298 0
-53 9 -298 0
-54 13 299 0
-54 13 -299 0
-55 17 300 0
-55 17 -300 0
-51 2 301 0
-51 2 -301 0
-52 6 302 0
-52 6 -302 0
-53 10 303 0
-53 10 -303 0
-54 14 304 0
-54 14 -304 0
-55 18 305 0
-55 18 -305 0
-51 3 306 0
-51 3 -306 0
-52 7 307 0
-52 7 -307 0
-53 11 308 0
-53 11 -308 0
-54 15 309 0
-54 15 -309 0
-55 19 310 0
-55 19 -310 0
-51 24 311 0
-51 24 -311 0
-52 28 312 0
-52 28 -312 0
-53 32 313 0
-53 32 -313 0
-54 36 314 0
-54 36 -314 0
-55 40 315 0
-55 40 -315 0
-56 1 316 0
-56 1 -316 0
-57 5 317 0
-57 5 -317 0
-58 9 318 0
-58 9 -318 0
-59 13 319 0
-59 13 -319 0
-60 17 320 0
-60 17 -320 0
-56 2 321 0
-56 2 -321 0
-57 6 322 0
-57 6 -322 0
-58 10 323 0
-58 10 -323 0
-59 14 324 0
-59 14 -324 0
-60 18 325 0
-60 18 -325 0
-56 23 326 0
-56 23 -326 0
-57 27 327 0
-57 27 -327 0
-58 31 328 0
-58 31 -328 0
-59 35 329 0
-59 35 -329 0
-60 39 330 0
-60 39 -330 0
-56 4 331 0
-56 4 -331 0
-57 8 332 0
-57 8 -332 0
-58 12 333 0
-58 12 -333 0
-59 16 334 0
-59 16 -334 0
-60 20 335 0
-60 20 -335 0
-61 1 336 0
-61 1 -336 0
-62 5 337 0
-62 5 -337 0
-63 9 338 0
-63 9 -338 0
-64 13 339 0
-64 13 -339 0
-65 17 340 0
-65 17 -340 0
-61 2 341 0
-61 2 -341 0
-62 6 342 0
-62 6 -342 0
-63 10 343 0
-63 10 -343 0
-64 14 344 0
-64 14 -344 0
-65 18 345 0
-65 18 -345 0
-61 23 346 0
-61 23 -346 0
-62 27 347 0
-62 27 -347 0
-63 31 348 0
-63 31 -348 0
-64 35 349 0
-64 35 -349 0
-65 39 350 0
-65 39 -350 0
-61 24 351 0
-61 24 -351 0
-62 28 352 0
-62 28 -352 0
-63 32 353 0
-63 32 -353 0
-64 36 354 0
-64 36 -354 0
-65 40 355 0
-65 40 -355 0
-71 1 356 0
-71 1 -356 0
-72 5 357 0
-72 5 -357 0
-73 9 358 0
-73 9 -358 0
-74 13 359 0
-74 13 -359 0
-75 17 360 0
-75 17 -360 0
-71 22 361 0
-71 22 -361 0
-72 26 362 0
-72 26 -362 0
-73 30 363 0
-73 30 -363 0
-74 34 364 0
-74 34 -364 0
-75 38 365 0
-75 38 -365 0
-71 3 366 0
-71 3 -366 0
-72 7 367 0
-72 7 -367 0
-73 11 368 0
-73 11 -368 0
-74 15 369 0
-74 15 -369 0
-75 19 370 0
-75 19 -370 0
-71 24 371 0
-71 24 -371 0
-72 28 372 0
-72 28 -372 0
-73 32 373 0
-73 32 -373 0
-74 36 374 0
-74 36 -374 0
-75 40 375 0
-75 40 -375 0
-76 1 376 0
-76 1 -376 0
-77 5 377 0
-77 5 -377 0
-78 9 378 0
-78 9 -378 0
-79 13 379 0
-79 13 -379 0
-80 17 380 0
-80 17 -380 0
-76 22 381 0
-76 22 -381 0
-77 26 382 0
-77 26 -382 0
-78 30 383 0
-78 30 -383 0
-79 34 384 0
-79 34 -384 0
-80 38 385 0
-80 38 -385 0
-76 23 386 0
-76 23 -386 0
-77 27 387 0
-77 27 -387 0
-78 31 388 0
-78 31 -388 0
-79 35 389 0
-79 35 -389 0
-80 39 390 0
-80 39 -390 0
-76 4 391 0
-76 4 -391 0
-77 8 392 0
-77 8 -392 0
-78 12 393 0
-78 12 -393 0
-79 16 394 0
-79 16 -394 0
-80 20 395 0
-80 20 -395 0
-81 1 396 0
-81 1 -396 0
-82 5 397 0
-82 5 -397 0
-83 9 398 0
-83 9 -398 0
-84 13 399 0
-84 13 -399 0
-85 17 400 0
-85 17 -400 0
-81 22 401 0
-81 22 -401 0
-82 26 402 0
-82 26 -402 0
-83 30 403 0
-83 30 -403 0
-84 34 404 0
-84 34 -404 0
-85 38 405 0
-85 38 -405 0
-81 23 406 0
-81 23 -406 0
-82 27 407 0
-82 27 -407 0
-83 31 408 0
-83 31 -408 0
-84 35 409 0
-84 35 -409 0
-85 39 410 0
-85 39 -410 0
-81 24 411 0
-81 24 -411 0
-82 28 412 0
-82 28 -412 0
-83 32 413 0
-83 32 -413 0
-84 36 414 0
-84 36 -414 0
-85 40 415 0
-85 40 -415 0
-96 21 416 0
-96 21 -416 0
-97 25 417 0
-97 25 -417 0
-98 29 418 0
-98 29 -418 0
-99 33 419 0
-99 33 -419 0
-100 37 420 0
-100 37 -420 0
-96 2 421 0
-96 2 -421 0
-97 6 422 0
-97 6 -422 0
-98 10 423 0
-98 10 -423 0
-99 14 424 0
-99 14 -424 0
-100 18 425 0
-100 18 -425 0
-96 23 426 0
-96 23 -426 0
-97 27 427 0
-97 27 -427 0
-98 31 428 0
-98 31 -428 0
-99 35 429 0
-99 35 -429 0
-100 39 430 0
-100 39 -430 0
-96 4 431 0
-96 4 -431 0
-97 8 432 0
-97 8 -432 0
-98 12 433 0
-98 12 -433 0
-99 16 434 0
-99 16 -434 0
-100 20 435 0
-100 20 -435 0
-101 21 436 0
-101 21 -436 0
-102 25 437 0
-102 25 -437 0
-103 29 438 0
-103 29 -438 0
-104 33 439 0
-104 33 -439 0
-105 37 440 0
-105 37 -440 0
-101 2 441 0
-101 2 -441 0
-102 6 442 0
-102 6 -442 0
-103 10 443 0
-103 10 -443 0
-104 14 444 0
-104 14 -444 0
-105 18 445 0
-105 18 -445 0
-101 23 446 0
-101 23 -446 0
-102 27 447 0
-102 27 -447 0
-103 31 448 0
-103 31 -448 0
-104 35 449 0
-104 35 -449 0
-105 39 450 0
-105 39 -450 0
-101 24 451 0
-101 24 -451 0
-102 28 452 0
-102 28 -452 0
-103 32 453 0
-103 32 -453 0
-104 36 454 0
-104 36 -454 0
-105 40 455 0
-105 40 -455 0
-121 21 456 0
-121 21 -456 0
-122 25 457 0
-122 25 -457 0
-123 29 458 0
-123 29 -458 0
-124 33 459 0
-124 33 -459 0
-125 37 460 0
-125 37 -460 0
-121 22 461 0
-121 22 -461 0
-122 26 462 0
-122 26 -462 0
-123 30 463 0
-123 30 -463 0
-124 34 464 0
-124 34 -464 0
-125 38 465 0
-125 38 -465 0
-121 23 466 0
-121 23 -466 0
-122 27 467 0
-122 27 -467 0
-123 31 468 0
-123 31 -468 0
-124 35 469 0
-124 35 -469 0
-125 39 470 0
-125 39 -470 0
-121 24 471 0
-121 24 -471 0
-122 28 472 0
-122 28 -472 0
-123 32 473 0
-123 32 -473 0
-124 36 474 0
-124 36 -474 0
-125 40 475 0
-125 40 -475 0
